NAME          
ROWS
 N  OBJ
 L  c1
COLUMNS
    MARKER    'MARKER'                 'INTORG'
    x[1]      c1        136
    x[1]      OBJ       -690
    x[2]      c1        47
    x[2]      OBJ       -943
    x[3]      c1        725
    x[3]      OBJ       -110
    x[4]      c1        138
    x[4]      OBJ       -43
    x[5]      c1        291
    x[5]      OBJ       -473
    x[6]      c1        469
    x[6]      OBJ       -639
    x[7]      c1        582
    x[7]      OBJ       -754
    x[8]      c1        709
    x[8]      OBJ       -255
    x[9]      c1        746
    x[9]      OBJ       -273
    x[10]     c1        111
    x[10]     OBJ       -340
RHS
    rhs       c1        1977
RANGES
BOUNDS
 LO bounds    x[1]      0
 PL bounds    x[1]
 LO bounds    x[2]      0
 PL bounds    x[2]
 LO bounds    x[3]      0
 PL bounds    x[3]
 LO bounds    x[4]      0
 PL bounds    x[4]
 LO bounds    x[5]      0
 PL bounds    x[5]
 LO bounds    x[6]      0
 PL bounds    x[6]
 LO bounds    x[7]      0
 PL bounds    x[7]
 LO bounds    x[8]      0
 PL bounds    x[8]
 LO bounds    x[9]      0
 PL bounds    x[9]
 LO bounds    x[10]     0
 PL bounds    x[10]
ENDATA
